% Data file for the superbracelet on three letters
n = 3;
pattern_length = 3;
num_patterns = 6;
num_classes = 1;

pattern = [| 1, 2, 3
            | 1, 3, 2
            | 2, 1, 3
            | 2, 3, 1
            | 3, 1, 2
            | 3, 2, 1 |];

class = [1, 1, 1, 1, 1, 1];
